NAME : gr24Preorder.485.tour
COMMENT : Length = 485
COMMENT : Found by LKH [Keld Helsgaun] Fri Apr 24 13:54:19 2020
TYPE : TOUR
DIMENSION : 24
TOUR_SECTION
1
12
4
23
9
13
14
20
2
15
19
22
18
17
10
5
21
8
24
6
7
3
11
16
-1
EOF
